proyfinal/src/viki/013/experimentInOfficeAgust.take6.output/f1c80b6f-9f61-4055-a3a9-f3fca524b301.als.out
Reading from standard input... Use '--help' for help.
============================[ Problem Statistics ]=============================
|                                                                             |
|  Number of variables:         87638                                         |
|  Number of clauses:          161767                                         |
|  Parse time:                   0.04 s                                       |
|                                                                             |
============================[ Search Statistics ]==============================
| Conflicts |          ORIGINAL         |          LEARNT          | Progress |
|           |    Vars  Clauses Literals |    Limit  Clauses Lit/Cl |          |
===============================================================================
|       100 |   64973   114768   285987 |    42081      100     12 | 25.862 % |
|       250 |   64973   114768   285987 |    46289      250     26 | 25.862 % |
|       475 |   64973   114768   285987 |    50918      475     42 | 25.862 % |
|       812 |   64936   114624   285646 |    56010      809     50 | 25.904 % |
|      1318 |   61032   101297   252850 |    61611     1301     45 | 30.359 % |
|      2077 |   61032   101297   252850 |    67772     2060     60 | 30.359 % |
|      3216 |   61032   101297   252850 |    74550     3199     64 | 30.359 % |
|      4924 |   60770   101248   252748 |    82005     4898     63 | 30.658 % |
|      7486 |   60707   100122   250132 |    90205     7434     72 | 30.730 % |
|     11330 |   60663    99750   249240 |    99226    11262     72 | 30.780 % |
|     17096 |   60544    99282   248146 |   109148    17019     81 | 30.916 % |
===============================================================================
restarts              : 74
conflicts             : 20889          (7220 /sec)
decisions             : 90577          (0.00 % random) (31305 /sec)
propagations          : 31138406       (10761959 /sec)
conflict literals     : 1738032        (38.77 % deleted)
Memory used           : 47.28 MB
CPU time              : 2.89338 s

INDETERMINATE
